NAME : covtype.pruned_global_8.0.tour
COMMENT : Length = 0
TYPE : TOUR
DIMENSION : 54
TOUR_SECTION
15
1
19
21
22
20
2
41
40
6
32
33
11
38
39
37
36
35
34
9
25
28
29
27
7
45
46
47
48
10
30
31
5
49
50
51
54
13
42
43
44
8
53
12
52
3
26
24
23
4
17
18
14
16
-1
EOF
